************************************************************************
file with basedata            : md348_.bas
initial value random generator: 1678676708
************************************************************************
projects                      :  1
jobs (incl. supersource/sink ):  22
horizon                       :  159
RESOURCES
  - renewable                 :  2   R
  - nonrenewable              :  2   N
  - doubly constrained        :  0   D
************************************************************************
PROJECT INFORMATION:
pronr.  #jobs rel.date duedate tardcost  MPM-Time
    1     20      0       25       16       25
************************************************************************
PRECEDENCE RELATIONS:
jobnr.    #modes  #successors   successors
   1        1          3           2   3   4
   2        3          3           5   8   9
   3        3          1           6
   4        3          3          14  16  21
   5        3          1          21
   6        3          3           7  12  13
   7        3          3          10  11  14
   8        3          3          10  15  19
   9        3          2          11  20
  10        3          1          16
  11        3          2          19  21
  12        3          2          15  18
  13        3          3          14  16  19
  14        3          2          15  18
  15        3          1          17
  16        3          2          17  18
  17        3          1          20
  18        3          1          20
  19        3          1          22
  20        3          1          22
  21        3          1          22
  22        1          0        
************************************************************************
REQUESTS/DURATIONS:
jobnr. mode duration  R 1  R 2  N 1  N 2
------------------------------------------------------------------------
  1      1     0       0    0    0    0
  2      1     1       8    0    0    3
         2     4       5    0   10    0
         3     6       2    0    0    2
  3      1     6       6    0    7    0
         2     7       6    0    6    0
         3     7       0    6    6    0
  4      1     7       0    5    2    0
         2     8       0    5    0    4
         3     9       0    4    0    3
  5      1     3       0    9    8    0
         2     3       4    0    1    0
         3    10       3    0    0    9
  6      1     2       8    0    5    0
         2     8       0    4    0    2
         3    10       6    0    0    2
  7      1     8       0    5    9    0
         2     9       5    0    4    0
         3    10       0    4    0    9
  8      1     2       9    0    3    0
         2     5       0    9    0    8
         3     7       0    7    0    7
  9      1     2       0    9    0    8
         2     5       4    0    0    4
         3     5       4    0    9    0
 10      1     1       0    7    7    0
         2     3       4    0    5    0
         3    10       0    6    0    2
 11      1     1       8    0    9    0
         2     3       0    7    9    0
         3     8       0    7    8    0
 12      1     2       1    0    8    0
         2     3       0    8    7    0
         3     8       0    6    4    0
 13      1     6       6    0    8    0
         2     6       0    2    0    6
         3     7       8    0    0    5
 14      1     1       0    8    0    3
         2     1       0    8    6    0
         3     9       7    0    5    0
 15      1     1       9    0    6    0
         2    10       0    8    6    0
         3    10       6    0    0    6
 16      1     4       9    0    0    9
         2     5       0    1    0    9
         3     6       9    0    0    7
 17      1     1       0    1    0    8
         2     3       6    0    0    1
         3     8       4    0    6    0
 18      1     3       0    3    3    0
         2     4       0    2    3    0
         3     5       6    0    0    3
 19      1     2       0    9    7    0
         2     5       6    0    4    0
         3    10       0    8    0    6
 20      1     1       0    8    0    2
         2     1       2    0    0    3
         3     5       0    9    6    0
 21      1     3       7    0    6    0
         2     7       6    0    0    2
         3     9       0    5    4    0
 22      1     0       0    0    0    0
************************************************************************
RESOURCEAVAILABILITIES:
  R 1  R 2  N 1  N 2
   29   38  125   91
************************************************************************
MAXIMAL LAGS:
from  to  type  delay
    1   12   ES      0
    1    2   ES      0
    2   12   ES      0
    1    3   ES      0
    3   12   ES      0
    1    4   ES      0
    4   12   ES      0
    1    5   ES      0
    5   12   ES      0
    1    6   ES      0
    6   12   ES      0
    1    7   ES      0
    7   12   ES      0
    1    8   ES      0
    8   12   ES      0
    1    9   ES      0
    9   12   ES      0
    1   10   ES      0
   10   12   ES      0
    1   11   ES      0
   11   12   ES      0
    1   12   ES      0
    2    5   SS     -9
    2    5   SE      0
    2    5   ES     -8
    2    5   EE     -7
    2    8   SS     -1
    2    8   SE      6
    2    8   ES     12
    2    8   EE     -5
    2    9   SS      8
    2    9   SE      1
    2    9   ES     -4
    2    9   EE      5
    3    6   SS      5
    3    6   SE     -8
    3    6   ES    -12
    3    6   EE      4
    4   14   SS      6
    4   14   SE     12
    4   14   ES     -5
    4   14   EE     -4
    4   16   SS      5
    4   16   SE      0
    4   16   ES      5
    4   16   EE     10
    4   21   SS      4
    4   21   SE     -5
    4   21   ES      7
    4   21   EE    -11
    5   21   SS      1
    5   21   SE     -8
    5   21   ES     -4
    5   21   EE      0
    6    7   SS      3
    6    7   SE     -8
    6    7   ES     12
    6    7   EE      4
    6   13   SS      2
    6   13   SE      7
    6   13   ES      6
    6   13   EE    -10
    7   10   SS      1
    7   10   SE    -12
    7   10   ES      7
    7   10   EE    -10
    7   11   SS    -10
    7   11   SE     -3
    7   11   ES    -10
    7   11   EE     -6
    7   14   SS     -9
    7   14   SE      6
    7   14   ES     12
    7   14   EE     11
    8   10   SS     -5
    8   10   SE     -1
    8   10   ES      9
    8   10   EE     12
    8   15   SS      7
    8   15   SE      8
    8   15   ES     -7
    8   15   EE     -6
    8   19   SS     10
    8   19   SE      1
    8   19   ES     -9
    8   19   EE     -5
    9   11   SS     -6
    9   11   SE      3
    9   11   ES     11
    9   11   EE      1
    9   20   SS    -12
    9   20   SE     -2
    9   20   ES     -7
    9   20   EE     -5
   10   16   SS    -11
   10   16   SE     -4
   10   16   ES     -2
   10   16   EE      5
   11   19   SS      4
   11   19   SE     -9
   19   11   SE      0
   11   19   ES      0
   11   19   EE     -2
   11   21   SS     12
   11   21   SE     10
   11   21   ES    -12
   11   21   EE     -7
   12   15   SS     -1
   12   15   SE     -4
   12   15   ES     12
   12   15   EE     -3
   12   18   SS      3
   12   18   SE     -8
   12   18   ES     -4
   12   18   EE     -9
   13   14   SS      7
   13   14   SE     -9
   13   14   ES      1
   13   14   EE     -2
   13   16   SS      8
   13   16   SE    -11
   13   16   ES     -6
   13   16   EE     10
   13   19   SS     -3
   13   19   SE     -4
   13   19   ES    -12
   13   19   EE      6
   14   15   SS      1
   14   15   SE      0
   14   15   ES    -10
   14   15   EE      3
   14   18   SS     12
   14   18   SE     11
   14   18   ES      3
   14   18   EE     11
   15   17   SS    -10
   15   17   SE     12
   15   17   ES      4
   15   17   EE     -8
   16   17   SS     10
   16   17   SE     -4
   16   17   ES      7
   16   17   EE      5
   16   18   SS      6
   16   18   SE     12
   16   18   ES      5
   16   18   EE      8
   17   20   SS    -11
   17   20   SE      5
   17   20   ES      5
   17   20   EE     11
   18   20   SS    -12
   18   20   SE      0
   18   20   ES      2
   18   20   EE      5
   19   22   SS     -8
   19   22   SE     -9
   19   22   ES     -4
   19   22   EE    -10
   20   22   SS      2
   20   22   SE     -4
   20   22   ES      1
   20   22   EE      4
   21   22   SS     -9
   21   22   SE     -5
   21   22   ES     -2
   21   22   EE      7
************************************************************************
